
;this file is automatically generated: Tue Mar 02 16:20:04 CST 2021

;declarations generated

(declare-fun oclExcludes ( Int Int) Bool)
(declare-fun obj_28fbf82b_6069_48f1_839c_3650f8e7d45f ( Int) Int)
(declare-fun Cardinality ( Int) Int)
(declare-fun oclSelect ( Int Bool) Int)
(declare-fun class24_Class24IntAttr1 ( Int) Int)
(declare-fun type_6622be8b_448c_48b1_8e1b_2ba07afc57e0_Class7 ( Int) Bool)
(declare-fun type_6622be8b_448c_48b1_8e1b_2ba07afc57e0_Class6 ( Int) Bool)
(declare-fun type_6622be8b_448c_48b1_8e1b_2ba07afc57e0_Class5 ( Int) Bool)
(declare-fun type_6622be8b_448c_48b1_8e1b_2ba07afc57e0_Class4 ( Int) Bool)
(declare-fun type_6622be8b_448c_48b1_8e1b_2ba07afc57e0_Class3 ( Int) Bool)
(declare-fun type_6622be8b_448c_48b1_8e1b_2ba07afc57e0_Class2 ( Int) Bool)
(declare-fun type_6622be8b_448c_48b1_8e1b_2ba07afc57e0_Class1 ( Int) Bool)
(declare-fun type_6622be8b_448c_48b1_8e1b_2ba07afc57e0_Class0 ( Int) Bool)
(declare-fun type_6622be8b_448c_48b1_8e1b_2ba07afc57e0_Class9 ( Int) Bool)
(declare-fun type_6622be8b_448c_48b1_8e1b_2ba07afc57e0_Class8 ( Int) Bool)
(declare-fun Enum0 ( Int) Int)
(declare-fun Enum1 ( Int) Int)
(declare-fun Enum2 ( Int) Int)
(declare-fun container_ ( Int) Int)
(declare-fun type_6622be8b_448c_48b1_8e1b_2ba07afc57e0_Class23 ( Int) Bool)
(declare-fun type_6622be8b_448c_48b1_8e1b_2ba07afc57e0_Class22 ( Int) Bool)
(declare-fun type_6622be8b_448c_48b1_8e1b_2ba07afc57e0_Class25 ( Int) Bool)
(declare-fun type_6622be8b_448c_48b1_8e1b_2ba07afc57e0_Class24 ( Int) Bool)
(declare-fun type_6622be8b_448c_48b1_8e1b_2ba07afc57e0_Class27 ( Int) Bool)
(declare-fun type_6622be8b_448c_48b1_8e1b_2ba07afc57e0_Class26 ( Int) Bool)
(declare-fun type_6622be8b_448c_48b1_8e1b_2ba07afc57e0_Class29 ( Int) Bool)
(declare-fun type_6622be8b_448c_48b1_8e1b_2ba07afc57e0_Class28 ( Int) Bool)
(declare-fun type_6622be8b_448c_48b1_8e1b_2ba07afc57e0_Class21 ( Int) Bool)
(declare-fun type_6622be8b_448c_48b1_8e1b_2ba07afc57e0_Class20 ( Int) Bool)
(declare-fun type_6622be8b_448c_48b1_8e1b_2ba07afc57e0_Class12 ( Int) Bool)
(declare-fun type_6622be8b_448c_48b1_8e1b_2ba07afc57e0_Class11 ( Int) Bool)
(declare-fun type_6622be8b_448c_48b1_8e1b_2ba07afc57e0_Class14 ( Int) Bool)
(declare-fun type_6622be8b_448c_48b1_8e1b_2ba07afc57e0_Class13 ( Int) Bool)
(declare-fun type_6622be8b_448c_48b1_8e1b_2ba07afc57e0_Class16 ( Int) Bool)
(declare-fun type_6622be8b_448c_48b1_8e1b_2ba07afc57e0_Class15 ( Int) Bool)
(declare-fun type_6622be8b_448c_48b1_8e1b_2ba07afc57e0_Class18 ( Int) Bool)
(declare-fun type_6622be8b_448c_48b1_8e1b_2ba07afc57e0_Class17 ( Int) Bool)
(declare-fun oclIncludes ( Int Int) Bool)
(declare-fun type_6622be8b_448c_48b1_8e1b_2ba07afc57e0_Class10 ( Int) Bool)
(declare-fun type_6622be8b_448c_48b1_8e1b_2ba07afc57e0_Class19 ( Int) Bool)
(declare-fun ObjAt ( Int Int) Int)

;formula(s) generated
(assert (forall ((p Int)) (=> ( type_6622be8b_448c_48b1_8e1b_2ba07afc57e0_Class24 p )  (and (>= ( Enum0 ( obj_28fbf82b_6069_48f1_839c_3650f8e7d45f p )  )  0) (<= ( Enum0 ( obj_28fbf82b_6069_48f1_839c_3650f8e7d45f p )  )  3)))))
(assert (! (forall ((v Int)) (=> (and (and ( type_6622be8b_448c_48b1_8e1b_2ba07afc57e0_Class24 v )  ( type_6622be8b_448c_48b1_8e1b_2ba07afc57e0_Class25 v ) ) ( type_6622be8b_448c_48b1_8e1b_2ba07afc57e0_Class0 v ) ) (or (= ( class24_Class24IntAttr1 ( obj_28fbf82b_6069_48f1_839c_3650f8e7d45f v )  )  19) (or (forall ((v Int)) (=> (and (and ( type_6622be8b_448c_48b1_8e1b_2ba07afc57e0_Class24 v )  ( type_6622be8b_448c_48b1_8e1b_2ba07afc57e0_Class25 v ) ) ( type_6622be8b_448c_48b1_8e1b_2ba07afc57e0_Class0 v ) ) (> ( class24_Class24IntAttr1 ( obj_28fbf82b_6069_48f1_839c_3650f8e7d45f v )  )  11))) (forall ((v Int)) (=> (and (and ( type_6622be8b_448c_48b1_8e1b_2ba07afc57e0_Class24 v )  ( type_6622be8b_448c_48b1_8e1b_2ba07afc57e0_Class25 v ) ) ( type_6622be8b_448c_48b1_8e1b_2ba07afc57e0_Class0 v ) ) (< ( class24_Class24IntAttr1 ( obj_28fbf82b_6069_48f1_839c_3650f8e7d45f v )  )  13))))))):named l0))
(assert (! (forall ((v Int)) (=> (and (and ( type_6622be8b_448c_48b1_8e1b_2ba07afc57e0_Class24 v )  ( type_6622be8b_448c_48b1_8e1b_2ba07afc57e0_Class25 v ) ) ( type_6622be8b_448c_48b1_8e1b_2ba07afc57e0_Class0 v ) ) (and (<= ( class24_Class24IntAttr1 ( obj_28fbf82b_6069_48f1_839c_3650f8e7d45f v )  )  11) (and (forall ((v Int)) (=> (and (and ( type_6622be8b_448c_48b1_8e1b_2ba07afc57e0_Class24 v )  ( type_6622be8b_448c_48b1_8e1b_2ba07afc57e0_Class25 v ) ) ( type_6622be8b_448c_48b1_8e1b_2ba07afc57e0_Class0 v ) ) (= ( class24_Class24IntAttr1 ( obj_28fbf82b_6069_48f1_839c_3650f8e7d45f v )  )  12))) (forall ((v Int)) (=> (and (and ( type_6622be8b_448c_48b1_8e1b_2ba07afc57e0_Class24 v )  ( type_6622be8b_448c_48b1_8e1b_2ba07afc57e0_Class25 v ) ) ( type_6622be8b_448c_48b1_8e1b_2ba07afc57e0_Class0 v ) ) (not (= ( Enum0 ( obj_28fbf82b_6069_48f1_839c_3650f8e7d45f v )  )  1) ))))))):named l1))
(assert (! (exists ((o Int)) (and ( type_6622be8b_448c_48b1_8e1b_2ba07afc57e0_Class0 ( obj_28fbf82b_6069_48f1_839c_3650f8e7d45f o )  )  ( type_6622be8b_448c_48b1_8e1b_2ba07afc57e0_Class25 ( obj_28fbf82b_6069_48f1_839c_3650f8e7d45f o )  ) )):named c0))
(assert (! (exists ((o Int)) ( type_6622be8b_448c_48b1_8e1b_2ba07afc57e0_Class1 ( obj_28fbf82b_6069_48f1_839c_3650f8e7d45f o )  ) ):named c1))
(assert (! (exists ((o Int)) ( type_6622be8b_448c_48b1_8e1b_2ba07afc57e0_Class10 ( obj_28fbf82b_6069_48f1_839c_3650f8e7d45f o )  ) ):named c2))
(assert (! (exists ((o Int)) ( type_6622be8b_448c_48b1_8e1b_2ba07afc57e0_Class11 ( obj_28fbf82b_6069_48f1_839c_3650f8e7d45f o )  ) ):named c3))
(assert (! (exists ((o Int)) ( type_6622be8b_448c_48b1_8e1b_2ba07afc57e0_Class12 ( obj_28fbf82b_6069_48f1_839c_3650f8e7d45f o )  ) ):named c4))
(assert (! (exists ((o Int)) (and (and ( type_6622be8b_448c_48b1_8e1b_2ba07afc57e0_Class13 ( obj_28fbf82b_6069_48f1_839c_3650f8e7d45f o )  )  ( type_6622be8b_448c_48b1_8e1b_2ba07afc57e0_Class25 ( obj_28fbf82b_6069_48f1_839c_3650f8e7d45f o )  ) ) ( type_6622be8b_448c_48b1_8e1b_2ba07afc57e0_Class0 ( obj_28fbf82b_6069_48f1_839c_3650f8e7d45f o )  ) )):named c5))
(assert (! (exists ((o Int)) (and (and ( type_6622be8b_448c_48b1_8e1b_2ba07afc57e0_Class14 ( obj_28fbf82b_6069_48f1_839c_3650f8e7d45f o )  )  ( type_6622be8b_448c_48b1_8e1b_2ba07afc57e0_Class25 ( obj_28fbf82b_6069_48f1_839c_3650f8e7d45f o )  ) ) ( type_6622be8b_448c_48b1_8e1b_2ba07afc57e0_Class17 ( obj_28fbf82b_6069_48f1_839c_3650f8e7d45f o )  ) )):named c6))
(assert (! (exists ((o Int)) ( type_6622be8b_448c_48b1_8e1b_2ba07afc57e0_Class15 ( obj_28fbf82b_6069_48f1_839c_3650f8e7d45f o )  ) ):named c7))
(assert (! (exists ((o Int)) ( type_6622be8b_448c_48b1_8e1b_2ba07afc57e0_Class16 ( obj_28fbf82b_6069_48f1_839c_3650f8e7d45f o )  ) ):named c8))
(assert (! (exists ((o Int)) (and ( type_6622be8b_448c_48b1_8e1b_2ba07afc57e0_Class17 ( obj_28fbf82b_6069_48f1_839c_3650f8e7d45f o )  )  ( type_6622be8b_448c_48b1_8e1b_2ba07afc57e0_Class25 ( obj_28fbf82b_6069_48f1_839c_3650f8e7d45f o )  ) )):named c9))
(assert (! (exists ((o Int)) (and (and ( type_6622be8b_448c_48b1_8e1b_2ba07afc57e0_Class18 ( obj_28fbf82b_6069_48f1_839c_3650f8e7d45f o )  )  ( type_6622be8b_448c_48b1_8e1b_2ba07afc57e0_Class25 ( obj_28fbf82b_6069_48f1_839c_3650f8e7d45f o )  ) ) ( type_6622be8b_448c_48b1_8e1b_2ba07afc57e0_Class17 ( obj_28fbf82b_6069_48f1_839c_3650f8e7d45f o )  ) )):named c10))
(assert (! (exists ((o Int)) ( type_6622be8b_448c_48b1_8e1b_2ba07afc57e0_Class19 ( obj_28fbf82b_6069_48f1_839c_3650f8e7d45f o )  ) ):named c11))
(assert (! (exists ((o Int)) ( type_6622be8b_448c_48b1_8e1b_2ba07afc57e0_Class2 ( obj_28fbf82b_6069_48f1_839c_3650f8e7d45f o )  ) ):named c12))
(assert (! (exists ((o Int)) ( type_6622be8b_448c_48b1_8e1b_2ba07afc57e0_Class20 ( obj_28fbf82b_6069_48f1_839c_3650f8e7d45f o )  ) ):named c13))
(assert (! (exists ((o Int)) (and (and (and ( type_6622be8b_448c_48b1_8e1b_2ba07afc57e0_Class21 ( obj_28fbf82b_6069_48f1_839c_3650f8e7d45f o )  )  ( type_6622be8b_448c_48b1_8e1b_2ba07afc57e0_Class25 ( obj_28fbf82b_6069_48f1_839c_3650f8e7d45f o )  ) ) ( type_6622be8b_448c_48b1_8e1b_2ba07afc57e0_Class13 ( obj_28fbf82b_6069_48f1_839c_3650f8e7d45f o )  ) ) ( type_6622be8b_448c_48b1_8e1b_2ba07afc57e0_Class0 ( obj_28fbf82b_6069_48f1_839c_3650f8e7d45f o )  ) )):named c14))
(assert (! (exists ((o Int)) ( type_6622be8b_448c_48b1_8e1b_2ba07afc57e0_Class22 ( obj_28fbf82b_6069_48f1_839c_3650f8e7d45f o )  ) ):named c15))
(assert (! (exists ((o Int)) (and (and (and (and ( type_6622be8b_448c_48b1_8e1b_2ba07afc57e0_Class23 ( obj_28fbf82b_6069_48f1_839c_3650f8e7d45f o )  )  ( type_6622be8b_448c_48b1_8e1b_2ba07afc57e0_Class25 ( obj_28fbf82b_6069_48f1_839c_3650f8e7d45f o )  ) ) ( type_6622be8b_448c_48b1_8e1b_2ba07afc57e0_Class13 ( obj_28fbf82b_6069_48f1_839c_3650f8e7d45f o )  ) ) ( type_6622be8b_448c_48b1_8e1b_2ba07afc57e0_Class0 ( obj_28fbf82b_6069_48f1_839c_3650f8e7d45f o )  ) ) ( type_6622be8b_448c_48b1_8e1b_2ba07afc57e0_Class21 ( obj_28fbf82b_6069_48f1_839c_3650f8e7d45f o )  ) )):named c16))
(assert (! (exists ((o Int)) (and (and ( type_6622be8b_448c_48b1_8e1b_2ba07afc57e0_Class24 ( obj_28fbf82b_6069_48f1_839c_3650f8e7d45f o )  )  ( type_6622be8b_448c_48b1_8e1b_2ba07afc57e0_Class25 ( obj_28fbf82b_6069_48f1_839c_3650f8e7d45f o )  ) ) ( type_6622be8b_448c_48b1_8e1b_2ba07afc57e0_Class0 ( obj_28fbf82b_6069_48f1_839c_3650f8e7d45f o )  ) )):named c17))
(assert (! (exists ((o Int)) ( type_6622be8b_448c_48b1_8e1b_2ba07afc57e0_Class25 ( obj_28fbf82b_6069_48f1_839c_3650f8e7d45f o )  ) ):named c18))
(assert (! (exists ((o Int)) ( type_6622be8b_448c_48b1_8e1b_2ba07afc57e0_Class26 ( obj_28fbf82b_6069_48f1_839c_3650f8e7d45f o )  ) ):named c19))
(assert (! (exists ((o Int)) (and (and ( type_6622be8b_448c_48b1_8e1b_2ba07afc57e0_Class27 ( obj_28fbf82b_6069_48f1_839c_3650f8e7d45f o )  )  ( type_6622be8b_448c_48b1_8e1b_2ba07afc57e0_Class25 ( obj_28fbf82b_6069_48f1_839c_3650f8e7d45f o )  ) ) ( type_6622be8b_448c_48b1_8e1b_2ba07afc57e0_Class17 ( obj_28fbf82b_6069_48f1_839c_3650f8e7d45f o )  ) )):named c20))
(assert (! (exists ((o Int)) (and (and (and (and ( type_6622be8b_448c_48b1_8e1b_2ba07afc57e0_Class28 ( obj_28fbf82b_6069_48f1_839c_3650f8e7d45f o )  )  ( type_6622be8b_448c_48b1_8e1b_2ba07afc57e0_Class25 ( obj_28fbf82b_6069_48f1_839c_3650f8e7d45f o )  ) ) ( type_6622be8b_448c_48b1_8e1b_2ba07afc57e0_Class13 ( obj_28fbf82b_6069_48f1_839c_3650f8e7d45f o )  ) ) ( type_6622be8b_448c_48b1_8e1b_2ba07afc57e0_Class0 ( obj_28fbf82b_6069_48f1_839c_3650f8e7d45f o )  ) ) ( type_6622be8b_448c_48b1_8e1b_2ba07afc57e0_Class21 ( obj_28fbf82b_6069_48f1_839c_3650f8e7d45f o )  ) )):named c21))
(assert (! (exists ((o Int)) ( type_6622be8b_448c_48b1_8e1b_2ba07afc57e0_Class29 ( obj_28fbf82b_6069_48f1_839c_3650f8e7d45f o )  ) ):named c22))
(assert (! (exists ((o Int)) ( type_6622be8b_448c_48b1_8e1b_2ba07afc57e0_Class3 ( obj_28fbf82b_6069_48f1_839c_3650f8e7d45f o )  ) ):named c23))
(assert (! (exists ((o Int)) (and (and (and (and ( type_6622be8b_448c_48b1_8e1b_2ba07afc57e0_Class4 ( obj_28fbf82b_6069_48f1_839c_3650f8e7d45f o )  )  ( type_6622be8b_448c_48b1_8e1b_2ba07afc57e0_Class25 ( obj_28fbf82b_6069_48f1_839c_3650f8e7d45f o )  ) ) ( type_6622be8b_448c_48b1_8e1b_2ba07afc57e0_Class24 ( obj_28fbf82b_6069_48f1_839c_3650f8e7d45f o )  ) ) ( type_6622be8b_448c_48b1_8e1b_2ba07afc57e0_Class6 ( obj_28fbf82b_6069_48f1_839c_3650f8e7d45f o )  ) ) ( type_6622be8b_448c_48b1_8e1b_2ba07afc57e0_Class0 ( obj_28fbf82b_6069_48f1_839c_3650f8e7d45f o )  ) )):named c24))
(assert (! (exists ((o Int)) ( type_6622be8b_448c_48b1_8e1b_2ba07afc57e0_Class5 ( obj_28fbf82b_6069_48f1_839c_3650f8e7d45f o )  ) ):named c25))
(assert (! (exists ((o Int)) (and (and (and ( type_6622be8b_448c_48b1_8e1b_2ba07afc57e0_Class6 ( obj_28fbf82b_6069_48f1_839c_3650f8e7d45f o )  )  ( type_6622be8b_448c_48b1_8e1b_2ba07afc57e0_Class25 ( obj_28fbf82b_6069_48f1_839c_3650f8e7d45f o )  ) ) ( type_6622be8b_448c_48b1_8e1b_2ba07afc57e0_Class24 ( obj_28fbf82b_6069_48f1_839c_3650f8e7d45f o )  ) ) ( type_6622be8b_448c_48b1_8e1b_2ba07afc57e0_Class0 ( obj_28fbf82b_6069_48f1_839c_3650f8e7d45f o )  ) )):named c26))
(assert (! (exists ((o Int)) ( type_6622be8b_448c_48b1_8e1b_2ba07afc57e0_Class7 ( obj_28fbf82b_6069_48f1_839c_3650f8e7d45f o )  ) ):named c27))
(assert (! (exists ((o Int)) ( type_6622be8b_448c_48b1_8e1b_2ba07afc57e0_Class8 ( obj_28fbf82b_6069_48f1_839c_3650f8e7d45f o )  ) ):named c28))
(assert (! (exists ((o Int)) ( type_6622be8b_448c_48b1_8e1b_2ba07afc57e0_Class9 ( obj_28fbf82b_6069_48f1_839c_3650f8e7d45f o )  ) ):named c29))

 ;end of formula 